c bitvector 0: 1 2 3 4 5 6 7 8 9 10
c bitvector 1: 11 12 13 14 15 16 17 18 19 20
c bitvector 2: 21 22 23 24 25 26 27 28 29 30
c bitvector 3: 31 32 33 34 35 36 37 38 39 40
c bitvector 4: 41 42 43 44 45 46 47 48 49 50
c bitvector 5: 107 108 109 110 111 112 113 114 115 116 117 118 119 120 121 122 123 124 125
c bitvector 6: 148 149 150 151 152 153 154 155 156 157 158 159 160 161 162 163 164 165 166
p cnf 166 389
-1 0
2 0
-3 0
4 0
-5 0
-6 0
-7 0
-8 0
-9 0
-10 0
-11 0
-12 0
-13 0
-14 0
-15 0
-16 0
-17 0
-18 0
-19 0
-20 0
-51 -21 11 0
-51 21 -11 0
51 21 11 0
51 -21 -11 0
-61 51 0
-52 -22 12 0
-52 22 -12 0
52 22 12 0
52 -22 -12 0
-61 52 0
-53 -23 13 0
-53 23 -13 0
53 23 13 0
53 -23 -13 0
-61 53 0
-54 -24 14 0
-54 24 -14 0
54 24 14 0
54 -24 -14 0
-61 54 0
-55 -25 15 0
-55 25 -15 0
55 25 15 0
55 -25 -15 0
-61 55 0
-56 -26 16 0
-56 26 -16 0
56 26 16 0
56 -26 -16 0
-61 56 0
-57 -27 17 0
-57 27 -17 0
57 27 17 0
57 -27 -17 0
-61 57 0
-58 -28 18 0
-58 28 -18 0
58 28 18 0
58 -28 -18 0
-61 58 0
-59 -29 19 0
-59 29 -19 0
59 29 19 0
59 -29 -19 0
-61 59 0
-60 -30 20 0
-60 30 -20 0
60 30 20 0
60 -30 -20 0
-61 60 0
-51 -52 -53 -54 -55 -56 -57 -58 -59 -60 61 0
-61 0
-62 -31 11 0
-62 31 -11 0
62 31 11 0
62 -31 -11 0
-72 62 0
-63 -32 12 0
-63 32 -12 0
63 32 12 0
63 -32 -12 0
-72 63 0
-64 -33 13 0
-64 33 -13 0
64 33 13 0
64 -33 -13 0
-72 64 0
-65 -34 14 0
-65 34 -14 0
65 34 14 0
65 -34 -14 0
-72 65 0
-66 -35 15 0
-66 35 -15 0
66 35 15 0
66 -35 -15 0
-72 66 0
-67 -36 16 0
-67 36 -16 0
67 36 16 0
67 -36 -16 0
-72 67 0
-68 -37 17 0
-68 37 -17 0
68 37 17 0
68 -37 -17 0
-72 68 0
-69 -38 18 0
-69 38 -18 0
69 38 18 0
69 -38 -18 0
-72 69 0
-70 -39 19 0
-70 39 -19 0
70 39 19 0
70 -39 -19 0
-72 70 0
-71 -40 20 0
-71 40 -20 0
71 40 20 0
71 -40 -20 0
-72 71 0
-62 -63 -64 -65 -66 -67 -68 -69 -70 -71 72 0
-72 0
-73 -21 31 0
-73 21 -31 0
73 21 31 0
73 -21 -31 0
-83 73 0
-74 -22 32 0
-74 22 -32 0
74 22 32 0
74 -22 -32 0
-83 74 0
-75 -23 33 0
-75 23 -33 0
75 23 33 0
75 -23 -33 0
-83 75 0
-76 -24 34 0
-76 24 -34 0
76 24 34 0
76 -24 -34 0
-83 76 0
-77 -25 35 0
-77 25 -35 0
77 25 35 0
77 -25 -35 0
-83 77 0
-78 -26 36 0
-78 26 -36 0
78 26 36 0
78 -26 -36 0
-83 78 0
-79 -27 37 0
-79 27 -37 0
79 27 37 0
79 -27 -37 0
-83 79 0
-80 -28 38 0
-80 28 -38 0
80 28 38 0
80 -28 -38 0
-83 80 0
-81 -29 39 0
-81 29 -39 0
81 29 39 0
81 -29 -39 0
-83 81 0
-82 -30 40 0
-82 30 -40 0
82 30 40 0
82 -30 -40 0
-83 82 0
-73 -74 -75 -76 -77 -78 -79 -80 -81 -82 83 0
-83 0
-84 0
-85 -21 1 0
-85 21 -1 0
85 21 1 0
85 -21 -1 0
-95 85 0
-86 -22 2 0
-86 22 -2 0
86 22 2 0
86 -22 -2 0
-95 86 0
-87 -23 3 0
-87 23 -3 0
87 23 3 0
87 -23 -3 0
-95 87 0
-88 -24 4 0
-88 24 -4 0
88 24 4 0
88 -24 -4 0
-95 88 0
-89 -25 5 0
-89 25 -5 0
89 25 5 0
89 -25 -5 0
-95 89 0
-90 -26 6 0
-90 26 -6 0
90 26 6 0
90 -26 -6 0
-95 90 0
-91 -27 7 0
-91 27 -7 0
91 27 7 0
91 -27 -7 0
-95 91 0
-92 -28 8 0
-92 28 -8 0
92 28 8 0
92 -28 -8 0
-95 92 0
-93 -29 9 0
-93 29 -9 0
93 29 9 0
93 -29 -9 0
-95 93 0
-94 -30 10 0
-94 30 -10 0
94 30 10 0
94 -30 -10 0
-95 94 0
-85 -86 -87 -88 -89 -90 -91 -92 -93 -94 95 0
-96 -31 41 0
-96 31 -41 0
96 31 41 0
96 -31 -41 0
-106 96 0
-97 -32 42 0
-97 32 -42 0
97 32 42 0
97 -32 -42 0
-106 97 0
-98 -33 43 0
-98 33 -43 0
98 33 43 0
98 -33 -43 0
-106 98 0
-99 -34 44 0
-99 34 -44 0
99 34 44 0
99 -34 -44 0
-106 99 0
-100 -35 45 0
-100 35 -45 0
100 35 45 0
100 -35 -45 0
-106 100 0
-101 -36 46 0
-101 36 -46 0
101 36 46 0
101 -36 -46 0
-106 101 0
-102 -37 47 0
-102 37 -47 0
102 37 47 0
102 -37 -47 0
-106 102 0
-103 -38 48 0
-103 38 -48 0
103 38 48 0
103 -38 -48 0
-106 103 0
-104 -39 49 0
-104 39 -49 0
104 39 49 0
104 -39 -49 0
-106 104 0
-105 -40 50 0
-105 40 -50 0
105 40 50 0
105 -40 -50 0
-106 105 0
-96 -97 -98 -99 -100 -101 -102 -103 -104 -105 106 0
-95 84 106 0
-84 5 0
-95 5 0
-5 84 95 0
-126 -1 1 0
-126 1 -1 0
126 1 1 0
126 -1 -1 0
-136 126 0
-127 -2 2 0
-127 2 -2 0
127 2 2 0
127 -2 -2 0
-136 127 0
-128 -3 3 0
-128 3 -3 0
128 3 3 0
128 -3 -3 0
-136 128 0
-129 -4 4 0
-129 4 -4 0
129 4 4 0
129 -4 -4 0
-136 129 0
-130 -5 5 0
-130 5 -5 0
130 5 5 0
130 -5 -5 0
-136 130 0
-131 -6 6 0
-131 6 -6 0
131 6 6 0
131 -6 -6 0
-136 131 0
-132 -7 7 0
-132 7 -7 0
132 7 7 0
132 -7 -7 0
-136 132 0
-133 -8 8 0
-133 8 -8 0
133 8 8 0
133 -8 -8 0
-136 133 0
-134 -9 9 0
-134 9 -9 0
134 9 9 0
134 -9 -9 0
-136 134 0
-135 -10 10 0
-135 10 -10 0
135 10 10 0
135 -10 -10 0
-136 135 0
-126 -127 -128 -129 -130 -131 -132 -133 -134 -135 136 0
-137 -21 41 0
-137 21 -41 0
137 21 41 0
137 -21 -41 0
-147 137 0
-138 -22 42 0
-138 22 -42 0
138 22 42 0
138 -22 -42 0
-147 138 0
-139 -23 43 0
-139 23 -43 0
139 23 43 0
139 -23 -43 0
-147 139 0
-140 -24 44 0
-140 24 -44 0
140 24 44 0
140 -24 -44 0
-147 140 0
-141 -25 45 0
-141 25 -45 0
141 25 45 0
141 -25 -45 0
-147 141 0
-142 -26 46 0
-142 26 -46 0
142 26 46 0
142 -26 -46 0
-147 142 0
-143 -27 47 0
-143 27 -47 0
143 27 47 0
143 -27 -47 0
-147 143 0
-144 -28 48 0
-144 28 -48 0
144 28 48 0
144 -28 -48 0
-147 144 0
-145 -29 49 0
-145 29 -49 0
145 29 49 0
145 -29 -49 0
-147 145 0
-146 -30 50 0
-146 30 -50 0
146 30 50 0
146 -30 -50 0
-147 146 0
-137 -138 -139 -140 -141 -142 -143 -144 -145 -146 147 0
-136 5 147 0
-5 6 0
-136 6 0
-6 5 136 0
